language ESSENCE' 1.0

letting setA_Explicit be [1, 2, 3, 8, 13, 14, 15, 16, 18, 19, 20, 21; int(1..12)]
letting setB_Occurrence be
        [false, false, false, true, true, true, true, false, true, true, true, true, false, false, false, false, true,
         false, false, false, false, true, true, true;
             int(1..24)]
